100 275598
32 64 63 9 28 76 87 100 15 1 88 83 43 39 29 95 31 78 46 84 10 69 37 73 80 56 13 41 14 4 77 65 26 90 79 98 27 45 93 86 62 68 75 42 61 81 22 54 74 58 23 72 3 5 38 52 44 34 66 40 24 53 59 7 47 71 19 96 11 35 55 70 12 17 99 2 67 16 91 8 92 50 82 30 20 25 49 18 21 60 33 36 89 97 48 6 85 51 94 57 
